PROBLEM NAME: eil51_n8
KNAPSACK DATA TYPE: uncorrelated
DIMENSION: 8
NUMBER OF ITEMS: 35
CAPACITY OF KNAPSACK: 17333
MIN SPEED: 0.1
MAX SPEED: 1
RENTING RATIO: 41.39
EDGE_WEIGHT_TYPE: CEIL_2D
NODE_COORD_SECTION	(INDEX, X, Y):
1	52	64
2	57	58
3	16	57
4	27	68
5	58	48
6	10	17
7	39	10
8	48	28
ITEMS SECTION	(INDEX, PROFIT, WEIGHT, ASSIGNED NODE NUMBER):
1	971	41	4
2	903	776	4
3	898	902	4
4	891	532	4
5	867	970	4
6	832	220	3
7	832	322	3
8	808	906	3
9	801	949	3
10	727	724	3
11	710	416	6
12	632	343	6
13	602	326	6
14	572	300	6
15	548	340	6
16	537	551	7
17	518	149	7
18	514	512	7
19	434	925	7
20	431	493	7
21	383	736	8
22	383	700	8
23	348	380	8
24	343	581	8
25	308	4	8
26	281	930	5
27	272	208	5
28	218	428	5
29	212	811	5
30	165	338	5
31	138	148	2
32	116	909	2
33	111	453	2
34	106	893	2
35	91	851	2
